CMD:
./solvers/bin/cadical --plain --no-reduce -t 1600 ./data/cnfs//cal37/cal37.80.cnf

c --- [ banner ] -------------------------------------------------------------
c 
c CaDiCaL SAT Solver
c Copyright (c) 2016-2024
c A. Biere, M. Fleury, N. Froleyks, K. Fazekas, F. Pollitt, T. Faller
c JKU Linz, University of Freiburg, TU Wien
c 
c Version 2.1.3 5296d3d2a9bf48c154ab2acb5e44625776d821bf
c g++ (Gentoo 12.3.1_p20230526 p2) 12.3.1 20230526 -Wall -Wextra -O3 -DNDEBUG
c Sat Aug 9 07:26:21 PDT 2025 Linux cedar2.int.cedar.computecanada.ca 5.14.0-362.24.2.el9_3.x86_64 x86_64
c 
c --- [ limit ] --------------------------------------------------------------
c 
c setting time limit to 1600 seconds real time (due to '-t 1600')
c 
c --- [ parsing input ] ------------------------------------------------------
c 
c reading DIMACS file from './data/cnfs//cal37/cal37.80.cnf'
c opening file to read './data/cnfs//cal37/cal37.80.cnf'
c found 'p cnf 309240 861092' header
c parsed 861092 clauses in 0.14 seconds process time
c 
c --- [ options ] ------------------------------------------------------------
c 
c   --compact=false                (different from default 'true')
c   --decompose=false              (different from default 'true')
c   --deduplicate=false            (different from default 'true')
c   --elim=false                   (different from default 'true')
c   --probe=false                  (different from default 'true')
c   --reduce=false                 (different from default 'true')
c   --subsume=false                (different from default 'true')
c   --ternary=false                (different from default 'true')
c   --transred=false               (different from default 'true')
c   --vivify=false                 (different from default 'true')
c 
c --- [ solving ] ------------------------------------------------------------
c 
c time measured in process time since initialization
c 
c  seconds   reductions  redundant  irredundant
c          MB    restarts       trail       variables
c           level   conflicts       glue          remaining
c 
c *  0.14 132  0 0   0    0    0  0% 0 779094 290667 94%
c {  0.14 132  0 0   0    0    0  0% 0 779094 290667 94%
c i  0.14 132 139 0   0   49   38  7% 4 779094 290650 94%
c }  0.50 137 6252 0  37 1003  842 47% 13 779094 290639 94%
c [  0.50 137  0 0  37 1003  842  0% 0 779094 290639 94%
c O  0.51 137 274 0  37 1004  843  7% 1 779094 290639 94%
c i  0.60 137 11650 0  37 1277 1035 59% 2 779094 290636 94%
c i  0.61 137 16575 0  37 1646 1355 82% 9 779094 290633 94%
c ]  0.79 138 14739 0  38 3004 2571 77% 13 779094 290633 94%
c {  0.79 138 6252 0  38 3004 2571 47% 13 779094 290633 94%
c F  0.79 138 6244 0  38 3005 2572 47% 13 779094 290633 94%
c i  0.85 138 3939 0  38 3607 3102 50% 11 779094 290624 94%
c #  0.97 139 1768 0  43 6008 5181 42% 9 779094 290624 94%
c }  1.08 139 1453 0  85 7005 6027 39% 8 779094 290624 94%
c [  1.08 139 14739 0  85 7005 6027 77% 13 779094 290624 94%
c I  1.37 142 6077 0  87 10009 8820 60% 17 779094 290624 94%
c ]  2.03 143 3049 0  90 15006 12963 37% 23 779094 290624 94%
c {  2.03 143 1453 0  90 15006 12963 39% 8 779094 290624 94%
c B  2.03 143 1452 0  90 15010 12966 39% 8 779094 290624 94%
c W  2.68 145 802 0 254 21013 18160 28% 7 759900 290624 94%
c 
c  seconds    reductions    redundant  irredundant
c          MB     restarts         trail       variables
c            level    conflicts        glue          remaining
c 
c F  3.16 145 551 0 342 28014 24192 23% 6 759900 290624 94%
c }  3.49 145 508 0 390 31006 26738 23% 6 759900 290624 94%
c [  3.49 145 3049 0 390 31006 26738 37% 23 759900 290624 94%
c B  4.12 145 2040 0 393 36015 31143 30% 20 759900 290624 94%
c W  5.48 146 1365 0 397 45016 39249 27% 22 759900 290624 94%
c O  6.80 149 1164 0 399 55017 48116 30% 24 759900 290624 94%
c ]  7.70 151 998 0 404 63006 55088 30% 21 759900 290624 94%
c {  7.70 151 508 0 404 63006 55088 23% 6 759900 290624 94%
c B  8.33 152 472 0 735 66019 57706 22% 6 759900 290624 94%
c W 10.37 155 405 0 1486 78020 68262 22% 6 759900 290624 94%
c # 12.59 158 347 0 2359 91021 79612 21% 6 759900 290624 94%
c B 15.05 160 311 0 3193 105022 92014 21% 6 759900 290624 94%
c W 18.07 163 279 0 4411 120024 104832 20% 6 759900 290624 94%
c } 19.41 164 267 0 4974 127007 110967 19% 6 759900 290624 94%
c [ 19.41 164 998 0 4974 127007 110967 30% 21 759900 290624 94%
c B 21.43 171 847 0 4979 136025 119365 28% 39 759900 290624 94%
c W 24.29 182 635 0 4984 153027 131892 23% 66 759900 290624 94%
c I 30.51 194 510 0 4986 171029 147391 21% 87 759900 290624 94%
c B 37.63 199 389 0 4998 190030 162360 19% 72 759900 290624 94%
c W 40.30 205 421 0 5005 210031 180561 20% 60 759900 290624 94%
c 
c  seconds    reductions      redundant    irredundant
c          MB     restarts            trail        variables
c            level     conflicts          glue           remaining
c 
c O 42.93 213 391 0 5014 231034 199397 20% 52 759900 290624 94%
c B 45.86 219 380 0 5015 253035 218969 22% 42 759900 290624 94%
c ] 46.17 219 381 0 5016 255007 220765 22% 42 759900 290624 94%
c { 46.17 219 267 0 5016 255007 220765 19% 6 759900 290624 94%
c F 52.24 229 241 0 7211 276037 239305 19% 7 759900 290624 94%
c i 56.59 235 230 0 8491 289161 250877 19% 7 759900 290603 94%
c i 57.87 237 228 0 8851 293704 254821 19% 7 759900 290561 94%
c B 60.27 238 221 0 9786 300038 260237 18% 7 759900 290561 94%
c W 66.56 323 210 0 11667 325040 281707 18% 7 759455 290561 94%
c # 72.98 323 192 0 13745 351044 303850 17% 7 759455 290561 94%
c i 79.45 323 180 0 15826 370775 321011 17% 7 759455 290560 94%
c i 79.48 323 180 0 15829 370887 321047 17% 7 759455 290559 94%
c B 80.98 323 179 0 16053 378047 327428 17% 7 759455 290559 94%
c W 88.77 329 176 0 17914 406048 351795 17% 7 759447 290559 94%
c F 97.37 329 175 0 20257 435049 377418 17% 7 759447 290559 94%
c B 107.27 330 165 0 23143 465050 403568 17% 7 759447 290559 94%
c i 113.24 330 161 0 25059 489014 423493 17% 7 759447 290545 94%
c W 115.68 336 161 0 25688 496051 426953 17% 7 759382 290545 94%
c } 119.70 336 158 0 27123 511007 439450 16% 7 759382 290545 94%
c [ 119.70 336 381 0 27123 511007 439450 22% 42 759382 290545 94%
c 
c  seconds     reductions       redundant    irredundant
c           MB      restarts            trail        variables
c             level      conflicts          glue           remaining
c 
c i 121.40 336 355 0 27123 519712 444891 21% 39 759382 290244 94%
c W 123.31 311 347 0 27123 528053 370511 21% 37 758221 290244 94%
c I 137.12 311 341 0 27135 561054 400575 21% 61 758221 290244 94%
c B 142.20 311 301 0 27150 595056 428699 21% 46 758221 290244 94%
c W 147.19 311 279 0 27157 630058 459096 20% 39 758221 290244 94%
c O 152.72 311 234 0 27174 666060 489857 18% 35 758221 290244 94%
c B 160.71 313 204 0 27185 703063 519359 16% 34 758221 290244 94%
c W 171.30 313 149 0 27186 741064 545071 16% 29 758221 290244 94%
c i 180.45 313 117 0 27187 767569 558479 14% 25 758221 289710 94%
c i 180.46 313 117 0 27187 767652 558496 14% 25 758221 289350 94%
c i 180.46 313 117 0 27187 767654 558497 14% 25 758221 289117 93%
c i 180.46 313 117 0 27187 767656 558498 14% 25 758221 288906 93%
c ] 180.46 313 117 0 27187 767658 558498 14% 25 758221 280479 91%
c 0 180.46 313 117 0 27187 767658 558498 14% 25 758221 280479 91%
c 
c --- [ result ] -------------------------------------------------------------
c 
s UNSATISFIABLE
c 
c --- [ run-time profiling ] -------------------------------------------------
c 
c process time taken by individual solving procedures
c (percentage relative to process time for solving)
c 
c       180.33  100.00% search
c        91.90   50.96% stable
c        85.73   47.54% unstable
c         2.70    1.50% walk
c         0.14    0.08% parse
c         0.00    0.00% lucky
c         0.00    0.00% simplify
c   =================================
c       180.33   99.92% solve
c 
c last line shows process time for solving
c (percentage relative to total process time)
c 
c --- [ statistics ] ---------------------------------------------------------
c 
c chronological:            287181        37.41 %  of conflicts
c conflicts:                767658      4257.05    per second
c decisions:               4155914     23046.63    per second
c fixed:                     28760         9.30 %  of all variables
c learned:                  735444        95.80 %  per conflict
c learned_lits:           52817547       100.00 %  learned literals
c minimized:                     0         0.00 %  learned literals
c shrunken:               16565500        31.36 %  learned literals
c minishrunken:            7362020        13.94 %  learned literals
c otfs:                       4264         0.56 %  of conflict
c propagations:         1810583727        10.04 M  per second
c rephased:                     38     20201.53    interval
c restarts:                  27187        28.24    interval
c stabilizing:                   5        55.54 %  of conflicts
c subsumed:                  92559         6.11 %  of all clauses
c strengthened:               3923         0.26 %  of all clauses
c walked:                       12     63971.50    interval
c 
c seconds are measured in process time for solving
c 
c --- [ resources ] ----------------------------------------------------------
c 
c total process time since initialization:       180.46    seconds
c total real time since initialization:          181.61    seconds
c maximum resident set size of process:          417.32    MB
c 
c --- [ shutting down ] ------------------------------------------------------
c 
c exit 20
